benchmarks/VRPTW/TSPTW/solution/n150w20.003.txt.solution
1 65 41 132 83 29 149 79 8 31 141 142 138 98 130 94 28 30 39 33 95 35 37 12 69 86 10 82 84 20 99 66 54 32 25 90 55 85 127 45 150 27 52 6 87 80 117 60 53 4 18 47 105 70 143 108 77 104 34 124 71 64 101 40 23 103 19 43 51 38 100 74 5 121 58 116 129 15 92 56 62 11 3 97 63 107 109 44 147 76 114 140 91 144 42 137 119 59 88 16 111 9 115 21 24 118 26 148 75 2 110 145 136 113 68 61 93 46 22 128 112 131 57 126 49 146 89 7 134 14 73 72 120 81 67 106 96 13 123 133 102 48 139 17 125 78 135 122 50 151 36 
834
